============================[ Problem Statistics ]=============================|                                                                             ||  Number of variables:          4242                                         ||  Number of clauses:           10410                                         ||  Parse time:                   0.79 s                                       ||                                                                             |============================[ Search Statistics ]==============================| Conflicts |          ORIGINAL         |          LEARNT          | Progress ||           |    Vars  Clauses Literals |    Limit  Clauses Lit/Cl |          |===============================================================================|       100 |    1591     6615  1271866 |     2425      100     53 | 62.501 % ||       250 |    1591     6615  1271866 |     2668      250     75 | 62.495 % |===============================================================================restarts              : 4conflicts             : 430            (359 /sec)decisions             : 792            (0.00 % random) (662 /sec)propagations          : 13706          (11450 /sec)conflict literals     : 36151          (94.49 % deleted)CPU time              : 1.197 sSATISFIABLE